! B3LYP cc-pVDZ def2/J RIJCOSX NBO

* xyzfile 0 1 dihedral.xyz
