! B3LYP cc-pVDZ def2/J RIJCOSX SP

* xyzfile 0 1 dihedral.xyz
