! B3LYP cc-pVDZ def2/J RIJCOSX Opt Freq

* xyzfile 0 1 init.xyz 
